Route #1: 82 57 94 64 105 69 17 2 67
Route #2: 74 99 11 34 72 29 96
Route #3: 21 54 85 83 77 13 40 31 63
Route #4: 100 51 60 87 76 15 5
Route #5: 45 103 93 28 101 12 104 1
Route #6: 49 48 8 36 91 88 58 14
Route #7: 7 75 84 66 97 43 53 44
Route #8: 62 26 90 24 102 92 52
Route #9: 33 22
Route #10: 9 46 71 79 37 27 19 78
Route #11: 56 20 16 10 41 18 86
Route #12: 35 73 32 3 23 42 30 89 59
Route #13: 55 98 4 70 6 81 50 39
Route #14: 25 47 61 80 65 38 95 68
Cost 26386
